0: 2 6 7 8 10 13 14 15 16 26 29 34 36 37 38 39 41 42 43 46 48 49 
1: 2 3 5 6 7 8 10 11 12 14 16 22 24 26 29 30 31 33 37 38 41 42 44 45 47 
2: 0 1 4 5 6 9 11 12 13 15 16 17 18 19 20 21 23 24 27 31 36 39 40 42 46 47 
3: 1 4 6 8 9 10 11 12 13 14 15 16 17 18 19 21 22 24 27 28 29 31 33 37 38 40 41 
4: 2 3 5 7 8 9 10 15 16 18 19 20 21 22 25 26 31 32 33 35 36 37 38 39 41 43 44 47 49 
5: 1 2 4 9 14 17 18 20 21 22 24 28 32 33 35 36 41 43 44 49 
6: 0 1 2 3 7 12 13 14 16 17 18 19 23 24 26 27 28 31 32 33 37 38 39 42 43 45 46 48 
7: 0 1 4 6 8 14 15 19 22 23 24 25 26 27 28 31 36 38 41 46 47 49 
8: 0 1 3 4 7 9 10 12 14 15 19 22 23 25 27 28 30 32 33 36 38 39 40 42 43 45 46 47 48 
9: 2 3 4 5 8 10 11 13 15 17 19 20 21 23 24 25 26 27 31 32 34 35 36 39 42 44 45 46 47 48 49 
10: 0 1 3 4 8 9 11 14 18 20 21 22 25 26 29 30 33 37 38 40 41 43 44 49 
11: 1 2 3 9 10 14 21 23 25 26 27 28 35 40 41 42 44 46 47 48 49 
12: 1 2 3 6 8 13 15 17 18 23 24 25 29 30 32 33 35 36 37 38 41 42 49 
13: 0 2 3 6 9 12 14 15 16 17 20 25 30 31 32 34 35 36 37 42 43 
14: 0 1 3 5 6 7 8 10 11 13 18 19 20 21 22 24 26 28 29 31 33 34 36 37 38 41 42 44 47 49 
15: 0 2 3 4 7 8 9 12 13 16 17 19 21 23 25 26 28 29 30 32 33 36 38 43 44 46 47 48 
16: 0 1 2 3 4 6 13 15 17 19 23 24 25 27 28 30 31 32 33 34 37 38 39 40 41 42 45 
17: 2 3 5 6 9 12 13 15 16 18 19 22 23 24 25 29 30 31 33 36 40 41 44 47 48 49 
18: 2 3 4 5 6 10 12 14 17 22 24 25 27 29 30 32 33 35 36 41 43 47 
19: 2 3 4 6 7 8 9 14 15 16 17 21 22 24 25 29 32 37 39 40 41 42 43 
20: 2 4 5 9 10 13 14 21 28 30 31 32 35 36 37 38 40 41 45 49 
21: 2 3 4 5 9 10 11 14 15 19 20 23 24 25 28 29 30 33 35 36 37 38 40 43 45 46 47 48 
22: 1 3 4 5 7 8 10 14 17 18 19 24 25 26 27 29 32 33 34 35 42 43 44 45 47 48 
23: 2 6 7 8 9 11 12 15 16 17 21 26 27 28 29 30 32 33 35 36 37 40 41 42 45 48 49 
24: 1 2 3 5 6 7 9 12 14 16 17 18 19 21 22 25 26 27 29 30 31 32 33 34 35 36 38 40 43 45 46 47 
25: 4 7 8 9 10 11 12 13 15 16 17 18 19 21 22 24 26 27 28 29 30 33 36 37 38 39 40 41 42 45 46 47 48 49 
26: 0 1 4 6 7 9 10 11 14 15 22 23 24 25 27 29 30 32 37 42 44 49 
27: 2 3 6 7 8 9 11 16 18 22 23 24 25 26 28 30 31 32 34 35 38 41 42 43 44 45 46 48 
28: 3 5 6 7 8 11 14 15 16 20 21 23 25 27 29 30 31 35 36 38 40 44 49 
29: 0 1 3 10 12 14 15 17 18 19 21 22 23 24 25 26 28 30 32 33 34 38 40 41 42 43 44 46 48 49 
30: 1 8 10 12 13 15 16 17 18 20 21 23 24 25 26 27 28 29 32 36 37 38 40 41 42 43 45 46 48 
31: 1 2 3 4 6 7 9 13 14 16 17 20 24 27 28 32 36 37 39 42 45 46 47 49 
32: 4 5 6 8 9 12 13 15 16 18 19 20 22 23 24 26 27 29 30 31 33 34 35 38 39 46 48 49 
33: 1 3 4 5 6 8 10 12 14 15 16 17 18 21 22 23 24 25 29 32 34 35 36 37 38 42 48 49 
34: 0 9 13 14 16 22 24 27 29 32 33 35 37 39 
35: 4 5 9 11 12 13 18 20 21 22 23 24 27 28 32 33 34 36 38 40 41 42 44 46 49 
36: 0 2 4 5 7 8 9 12 13 14 15 17 18 20 21 23 24 25 28 30 31 33 35 37 41 42 43 47 49 
37: 0 1 3 4 6 10 12 13 14 16 19 20 21 23 25 26 30 31 33 34 36 39 41 42 47 48 
38: 0 1 3 4 6 7 8 10 12 14 15 16 20 21 24 25 27 28 29 30 32 33 35 42 44 46 49 
39: 0 2 4 6 8 9 16 19 25 31 32 34 37 42 45 47 
40: 2 3 8 10 11 16 17 19 20 21 23 24 25 28 29 30 35 42 43 45 46 48 49 
41: 0 1 3 4 5 7 10 11 12 14 16 17 18 19 20 23 25 27 29 30 35 36 37 43 44 45 48 49 
42: 0 1 2 6 8 9 11 12 13 14 16 19 22 23 25 26 27 29 30 31 33 35 36 37 38 39 40 45 46 47 49 
43: 0 4 5 6 8 10 13 15 18 19 21 22 24 27 29 30 36 40 41 44 46 48 49 
44: 1 4 5 9 10 11 14 15 17 22 26 27 28 29 35 38 41 43 47 48 49 
45: 1 6 8 9 16 20 21 22 23 24 25 27 30 31 39 40 41 42 47 49 
46: 0 2 6 7 8 9 11 15 21 24 25 27 29 30 31 32 35 38 40 42 43 48 49 
47: 1 2 4 7 8 9 11 14 15 17 18 21 22 24 25 31 36 37 39 42 44 45 48 49 
48: 0 6 8 9 11 15 17 21 22 23 25 27 29 30 32 33 37 40 41 43 44 46 47 
49: 0 4 5 7 9 10 11 12 14 17 20 23 25 26 28 29 31 32 33 35 36 38 40 41 42 43 44 45 46 47 